\ Model Assignment Problem with Overtime Penalty
\ LP format - for model browsing. Use MPS format to capture full model detail.
Minimize
  16.3924704814 x[0,0] + 95.76409414850001 x[0,1] + 34.3228599662 x[0,2]
   + 10.1818384946 x[0,3] + 10.5749213065 x[0,4] + 84.90194226840001 x[1,0]
   + 60.7688771053 x[1,1] + 80.9056990542 x[1,2] + 73.2434468827 x[1,3]
   + 54.086581054 x[1,4] + 97.338460634 x[2,0] + 38.4749033436 x[2,1]
   + 55.652022496 x[2,2] + 83.111061761 x[2,3] + 62.2334554841 x[2,4]
   + 86.3089831308 x[3,0] + 58.1578623804 x[3,1] + 70.7526117853 x[3,2]
   + 5.5366139819 x[3,3] + 23.5619292895 x[3,4] + 29.6494083966 x[4,0]
   + 8.8994057154 x[4,1] + 24.0462977497 x[4,2] + 10.9991415116 x[4,3]
   + 28.5193867079 x[4,4] + 36.7272130996 y[0] + 9.0067221943 y[1]
   + 19.5933166461 y[2] + 49.4866441812 y[3] + 32.3599882329 y[4]
Subject To
 coverage_0: x[0,0] + x[1,0] + x[2,0] + x[3,0] + x[4,0] >= 3
 coverage_1: x[0,1] + x[1,1] + x[2,1] + x[3,1] + x[4,1] >= 2
 coverage_2: x[0,2] + x[1,2] + x[2,2] + x[3,2] + x[4,2] >= 3
 coverage_3: x[0,3] + x[1,3] + x[2,3] + x[3,3] + x[4,3] >= 3
 coverage_4: x[0,4] + x[1,4] + x[2,4] + x[3,4] + x[4,4] >= 2
 assignment_0: x[0,0] + x[0,1] + x[0,2] + x[0,3] + x[0,4] <= 1
 assignment_1: x[1,0] + x[1,1] + x[1,2] + x[1,3] + x[1,4] <= 1
 assignment_2: x[2,0] + x[2,1] + x[2,2] + x[2,3] + x[2,4] <= 1
 assignment_3: x[3,0] + x[3,1] + x[3,2] + x[3,3] + x[3,4] <= 1
 assignment_4: x[4,0] + x[4,1] + x[4,2] + x[4,3] + x[4,4] <= 1
 overtime_0: x[0,0] + x[0,1] + x[0,2] + x[0,3] + x[0,4] - y[0] <= 3
 overtime_1: x[1,0] + x[1,1] + x[1,2] + x[1,3] + x[1,4] - y[1] <= 1
 overtime_2: x[2,0] + x[2,1] + x[2,2] + x[2,3] + x[2,4] - y[2] <= 5
 overtime_3: x[3,0] + x[3,1] + x[3,2] + x[3,3] + x[3,4] - y[3] <= 2
 overtime_4: x[4,0] + x[4,1] + x[4,2] + x[4,3] + x[4,4] - y[4] <= 5
Bounds
Binaries
 x[0,0] x[0,1] x[0,2] x[0,3] x[0,4] x[1,0] x[1,1] x[1,2] x[1,3] x[1,4]
 x[2,0] x[2,1] x[2,2] x[2,3] x[2,4] x[3,0] x[3,1] x[3,2] x[3,3] x[3,4]
 x[4,0] x[4,1] x[4,2] x[4,3] x[4,4]
Generals
 y[0] y[1] y[2] y[3] y[4]
End
